networks/zoo_176_4597/zoo_176_4597-lower.txt
Number of groups: 80
Flow 16: {32 80 0} {80 21 1} {21 109 2} 
Flow 31: {39 40 0} {40 128 1} 
Flow 39: {51 54 0} {54 142 1} 
Flow 43: {62 13 0} {13 61 1} {61 17 2} {17 64 3} {64 152 4} 
Flow 45: {64 63 0} {63 66 1} {66 154 2} 
Flow 57: {87 86 0} {86 174 1} 
Flow 59: {30 31 0} {31 52 1} {52 33 2} {33 88 3} {88 176 4} 
Flow 99: {47 135 0} 
Flow 167: {79 33 0} {33 52 1} {52 31 2} {31 119 3} 
Flow 401: {29 2 0} {2 30 1} {30 118 2} 
Flow 516: {15 49 0} {49 50 1} {50 57 2} {57 18 3} {18 106 4} 
Flow 543: {6 5 0} {5 93 1} 
Flow 550: {28 14 0} {14 102 1} 
Flow 555: {20 19 0} {19 107 1} 
Flow 639: {33 79 0} {79 32 1} {32 120 2} 
Flow 654: {55 56 0} {56 53 1} {53 141 2} 
Flow 656: {18 58 0} {58 55 1} {55 143 2} 
Flow 731: {49 15 0} {15 67 1} {67 68 2} {68 65 3} {65 153 4} 
Flow 796: {53 54 0} {54 51 1} {51 69 2} {69 157 3} 
Flow 828: {16 24 0} {24 112 1} 
Flow 888: {66 65 0} {65 68 1} {68 67 2} {67 15 3} {15 103 4} 
Flow 1018: {44 45 0} {45 77 1} {77 78 2} {78 46 3} {46 39 4} 
Flow 1092: {26 23 0} {23 27 1} {27 48 2} {48 136 3} 
Flow 1097: {85 84 0} {84 60 1} {60 148 2} 
Flow 1177: {22 19 0} {19 20 1} {20 43 2} {43 75 3} {75 163 4} 
Flow 1195: {7 8 0} {8 12 1} {12 11 2} {11 99 3} 
Flow 1231: {58 18 0} {18 57 1} {57 50 2} {50 49 3} {49 137 4} 
Flow 1279: {24 23 0} {23 111 1} 
Flow 1282: {16 48 0} {48 28 1} {28 116 2} 
Flow 1425: {84 85 0} {85 86 1} {86 87 2} {87 35 3} {35 123 4} 
Flow 1584: {41 72 0} {72 71 1} {71 159 2} 
Flow 1588: {37 76 0} {76 164 1} 
Flow 1722: {60 83 0} {83 81 1} {81 82 2} {82 170 3} 
Flow 1751: {76 25 0} {25 44 1} {44 26 2} {26 114 3} 
Flow 1762: {2 29 0} {29 1 1} {1 38 2} {38 126 3} 
Flow 1773: {70 69 0} {69 51 1} {51 139 2} 
Flow 1778: {56 55 0} {55 58 1} {58 146 2} 
Flow 1781: {11 59 0} {59 62 1} {62 150 2} 
Flow 1799: {86 85 0} {85 173 1} 
Flow 1961: {14 74 0} {74 47 1} {47 42 2} {42 130 3} 
Flow 1999: {38 10 0} {10 9 1} {9 97 2} 
Flow 2156: {34 88 0} {88 33 1} {33 121 2} 
Flow 2157: {35 36 0} {36 34 1} {34 122 2} 
Flow 2166: {45 44 0} {44 132 1} 
Flow 2179: {68 156 0} 
Flow 2216: {27 23 0} {23 26 1} {26 44 2} {44 25 3} {25 113 4} 
Flow 2269: {3 4 0} {4 92 1} 
Flow 2330: {40 71 0} {71 72 1} {72 160 2} 
Flow 2338: {42 82 0} {82 81 1} {81 83 2} {83 171 3} 
Flow 2401: {43 70 0} {70 158 1} 
Flow 2482: {36 35 0} {35 87 1} {87 175 2} 
Flow 2559: {25 76 0} {76 37 1} {37 43 2} {43 20 3} {20 108 4} 
Flow 2712: {69 70 0} {70 43 1} {43 37 2} {37 125 3} 
Flow 2795: {31 30 0} {30 2 1} {2 90 2} 
Flow 2841: {65 66 0} {66 63 1} {63 151 2} 
Flow 2854: {19 22 0} {22 21 1} {21 80 2} {80 168 3} 
Flow 2869: {63 64 0} {64 17 1} {17 105 2} 
Flow 2888: {23 24 0} {24 16 1} 
Flow 2957: {80 32 0} {32 79 1} {79 167 2} 
Flow 3076: {5 4 0} {4 3 1} {3 75 2} {75 43 3} {43 131 4} 
Flow 3112: {9 12 0} {12 8 1} {8 96 2} 
Flow 3300: {12 9 0} {9 10 1} {10 98 2} 
Flow 3354: {13 62 0} {62 59 1} {59 11 2} {11 12 3} {12 100 4} 
Flow 3355: {17 61 0} {61 13 1} {13 101 2} 
Flow 3375: {88 34 0} {34 36 1} {36 124 2} 
Flow 3434: {10 38 0} {38 1 1} {1 29 2} {29 117 3} 
Flow 3614: {75 3 0} {3 91 1} 
Flow 3663: {72 41 0} {41 73 1} {73 161 2} 
Flow 3731: {73 42 0} {42 47 1} {47 74 2} {74 162 3} 
Flow 3746: {4 5 0} {5 6 1} {6 7 2} {7 95 3} 
Flow 3753: {74 14 0} {14 28 1} {28 48 2} {48 16 3} {16 104 4} 
Flow 3929: {83 60 0} {60 84 1} {84 172 2} 
Flow 4136: {39 46 0} {46 78 1} {78 77 2} {77 45 3} {45 133 4} 
Flow 4238: {21 22 0} {22 110 1} 
Flow 4293: {8 7 0} {7 6 1} {6 94 2} 
Flow 4390: {82 42 0} {42 73 1} {73 41 2} {41 129 3} 
Flow 4440: {48 27 0} {27 115 1} 
Flow 4502: {71 40 0} {40 39 1} {39 127 2} 
Flow 4513: {61 149 0} 
Flow 4575: {54 53 0} {53 56 1} {56 144 2} 
Time taken running everything: 30 seconds
