networks/zoo_176_4597/zoo_176_4597-lower.sol
<?xml version = "1.0" encoding="UTF-8" standalone="yes"?>
<CPLEXSolution version="1.2">
 <header
   problemName="networks/zoo_176_4597/zoo_176_4597-lower.lp"
   solutionName="incumbent"
   solutionIndex="-1"
   objectiveValue="78"
   solutionTypeValue="3"
   solutionTypeString="primal"
   solutionStatusValue="101"
   solutionStatusString="integer optimal solution"
   solutionMethodString="mip"
   primalFeasible="1"
   dualFeasible="1"
   MIPNodes="0"
   MIPIterations="13"
   writeLevel="3"/>
 <quality
   epInt="1.0000000000000001e-05"
   epRHS="9.9999999999999995e-07"
   maxIntInfeas="0"
   maxPrimalInfeas="0"
   maxX="1"
   maxSlack="1"/>
 <variables>
  <variable name="Y(30,39)" index="4852" value="1"/>
  <variable name="Y(143,3)" index="23574" value="1"/>
  <variable name="Y(144,5)" index="23742" value="1"/>
  <variable name="Y(251,7)" index="41506" value="1"/>
  <variable name="Y(317,6)" index="52461" value="1"/>
  <variable name="Y(469,38)" index="77725" value="1"/>
  <variable name="Y(511,12)" index="84671" value="1"/>
  <variable name="Y(551,15)" index="91314" value="1"/>
  <variable name="Y(626,17)" index="103766" value="1"/>
  <variable name="Y(827,23)" index="137138" value="1"/>
  <variable name="Y(830,27)" index="137640" value="1"/>
  <variable name="Y(921,63)" index="152782" value="1"/>
  <variable name="Y(1002,22)" index="166187" value="1"/>
  <variable name="Y(1136,21)" index="188430" value="1"/>
  <variable name="Y(1207,24)" index="200219" value="1"/>
  <variable name="Y(1231,49)" index="204228" value="1"/>
  <variable name="Y(1296,42)" index="215011" value="1"/>
  <variable name="Y(1301,48)" index="215847" value="1"/>
  <variable name="Y(1388,76)" index="230317" value="1"/>
  <variable name="Y(1597,2)" index="264937" value="1"/>
  <variable name="Y(1720,79)" index="285432" value="1"/>
  <variable name="Y(1722,82)" index="285767" value="1"/>
  <variable name="Y(1802,88)" index="299053" value="1"/>
  <variable name="Y(1831,36)" index="303815" value="1"/>
  <variable name="Y(1867,87)" index="309842" value="1"/>
  <variable name="Y(1980,71)" index="328584" value="1"/>
  <variable name="Y(2177,65)" index="361280" value="1"/>
  <variable name="Y(2236,47)" index="371056" value="1"/>
  <variable name="Y(2261,83)" index="375242" value="1"/>
  <variable name="Y(2269,4)" index="376491" value="1"/>
  <variable name="Y(2276,11)" index="377660" value="1"/>
  <variable name="Y(2284,19)" index="378996" value="1"/>
  <variable name="Y(2285,20)" index="379163" value="1"/>
  <variable name="Y(2293,28)" index="380499" value="1"/>
  <variable name="Y(2302,37)" index="382002" value="1"/>
  <variable name="Y(2313,51)" index="383842" value="1"/>
  <variable name="Y(2318,58)" index="384679" value="1"/>
  <variable name="Y(2328,70)" index="386351" value="1"/>
  <variable name="Y(2330,72)" index="386685" value="1"/>
  <variable name="Y(2365,25)" index="392448" value="1"/>
  <variable name="Y(2454,44)" index="407241" value="1"/>
  <variable name="Y(2577,40)" index="427655" value="1"/>
  <variable name="Y(2599,74)" index="431341" value="1"/>
  <variable name="Y(2715,41)" index="450564" value="1"/>
  <variable name="Y(2837,56)" index="470831" value="1"/>
  <variable name="Y(3086,62)" index="512171" value="1"/>
  <variable name="Y(3192,64)" index="529769" value="1"/>
  <variable name="Y(3324,43)" index="551660" value="1"/>
  <variable name="Y(3333,66)" index="553177" value="1"/>
  <variable name="Y(3471,80)" index="576099" value="1"/>
  <variable name="Y(3475,86)" index="576769" value="1"/>
  <variable name="Y(3504,32)" index="581529" value="1"/>
  <variable name="Y(3599,69)" index="597336" value="1"/>
  <variable name="Y(3632,26)" index="602771" value="1"/>
  <variable name="Y(3640,34)" index="604107" value="1"/>
  <variable name="Y(3699,31)" index="613898" value="1"/>
  <variable name="Y(3842,55)" index="637660" value="1"/>
  <variable name="Y(4059,33)" index="673660" value="1"/>
  <variable name="Y(4089,73)" index="678680" value="1"/>
  <variable name="Y(4095,84)" index="679687" value="1"/>
  <variable name="Y(4096,85)" index="679854" value="1"/>
  <variable name="Y(4123,30)" index="684281" value="1"/>
  <variable name="Y(4146,68)" index="688137" value="1"/>
  <variable name="Y(4169,13)" index="691900" value="1"/>
  <variable name="Y(4213,75)" index="699266" value="1"/>
  <variable name="Y(4296,9)" index="712978" value="1"/>
  <variable name="Y(4318,35)" index="716656" value="1"/>
  <variable name="Y(4328,45)" index="718326" value="1"/>
  <variable name="Y(4401,60)" index="730459" value="1"/>
  <variable name="Y(4402,61)" index="730626" value="1"/>
  <variable name="Y(4429,10)" index="735057" value="1"/>
  <variable name="Y(4432,14)" index="735559" value="1"/>
  <variable name="Y(4433,16)" index="735727" value="1"/>
  <variable name="Y(4487,18)" index="744693" value="1"/>
  <variable name="Y(4495,29)" index="746032" value="1"/>
  <variable name="Y(4536,8)" index="752817" value="1"/>
  <variable name="Y(4572,53)" index="758838" value="1"/>
  <variable name="Y(4573,54)" index="759005" value="1"/>
  <variable name="X(1,29,3475)" index="766576" value="1"/>
  <variable name="X(1,38,4429)" index="772127" value="1"/>
  <variable name="X(2,29,4495)" index="776790" value="1"/>
  <variable name="X(2,30,3475)" index="780367" value="1"/>
  <variable name="X(2,90,1597)" index="783086" value="1"/>
  <variable name="X(3,4,2269)" index="788355" value="1"/>
  <variable name="X(3,75,3324)" index="794007" value="1"/>
  <variable name="X(3,91,143)" index="795423" value="1"/>
  <variable name="X(4,3,3324)" index="803201" value="1"/>
  <variable name="X(4,5,4169)" index="808643" value="1"/>
  <variable name="X(4,92,2269)" index="811340" value="1"/>
  <variable name="X(5,4,3324)" index="816992" value="1"/>
  <variable name="X(5,6,4169)" index="822434" value="1"/>
  <variable name="X(5,93,144)" index="823006" value="1"/>
  <variable name="X(6,5,3324)" index="830783" value="1"/>
  <variable name="X(6,7,4169)" index="836225" value="1"/>
  <variable name="X(6,94,317)" index="836970" value="1"/>
  <variable name="X(7,6,3324)" index="844574" value="1"/>
  <variable name="X(7,8,4169)" index="850016" value="1"/>
  <variable name="X(7,95,251)" index="850695" value="1"/>
  <variable name="X(8,7,3324)" index="858365" value="1"/>
  <variable name="X(8,12,4169)" index="863807" value="1"/>
  <variable name="X(8,96,4536)" index="868771" value="1"/>
  <variable name="X(9,10,3475)" index="872307" value="1"/>
  <variable name="X(9,12,4536)" index="877965" value="1"/>
  <variable name="X(9,97,4296)" index="882322" value="1"/>
  <variable name="X(10,9,4296)" index="886919" value="1"/>
  <variable name="X(10,38,3475)" index="890695" value="1"/>
  <variable name="X(10,98,4429)" index="896246" value="1"/>
  <variable name="X(11,12,3475)" index="899889" value="1"/>
  <variable name="X(11,59,4169)" index="905180" value="1"/>
  <variable name="X(11,99,2276)" index="907884" value="1"/>
  <variable name="X(12,8,4536)" index="914741" value="1"/>
  <variable name="X(12,9,3475)" index="918277" value="1"/>
  <variable name="X(12,11,4169)" index="923568" value="1"/>
  <variable name="X(12,100,511)" index="924507" value="1"/>
  <variable name="X(13,61,4402)" index="932995" value="1"/>
  <variable name="X(13,62,3475)" index="936665" value="1"/>
  <variable name="X(13,101,4169)" index="941956" value="1"/>
  <variable name="X(14,28,4433)" index="946817" value="1"/>
  <variable name="X(14,74,1296)" index="948277" value="1"/>
  <variable name="X(14,102,4432)" index="956010" value="1"/>
  <variable name="X(15,49,3471)" index="959646" value="1"/>
  <variable name="X(15,67,2177)" index="962949" value="1"/>
  <variable name="X(15,103,551)" index="965920" value="1"/>
  <variable name="X(16,24,827)" index="970793" value="1"/>
  <variable name="X(16,48,1301)" index="975864" value="1"/>
  <variable name="X(16,104,4433)" index="983593" value="1"/>
  <variable name="X(17,61,3475)" index="987232" value="1"/>
  <variable name="X(17,64,3192)" index="991546" value="1"/>
  <variable name="X(17,105,626)" index="993577" value="1"/>
  <variable name="X(18,57,2177)" index="999725" value="1"/>
  <variable name="X(18,58,3471)" index="1005616" value="1"/>
  <variable name="X(18,106,4487)" index="1011229" value="1"/>
  <variable name="X(19,20,4573)" index="1015912" value="1"/>
  <variable name="X(19,22,3471)" index="1019407" value="1"/>
  <variable name="X(19,107,2284)" index="1022817" value="1"/>
  <variable name="X(20,19,3471)" index="1028601" value="1"/>
  <variable name="X(20,43,4573)" index="1034300" value="1"/>
  <variable name="X(20,108,2285)" index="1036609" value="1"/>
  <variable name="X(21,22,4573)" index="1043494" value="1"/>
  <variable name="X(21,80,3471)" index="1046989" value="1"/>
  <variable name="X(21,109,1136)" index="1049251" value="1"/>
  <variable name="X(22,19,4573)" index="1057285" value="1"/>
  <variable name="X(22,21,3471)" index="1060780" value="1"/>
  <variable name="X(22,110,1002)" index="1062908" value="1"/>
  <variable name="X(23,24,1207)" index="1067710" value="1"/>
  <variable name="X(23,26,4213)" index="1075313" value="1"/>
  <variable name="X(23,27,2293)" index="1077990" value="1"/>
  <variable name="X(23,111,827)" index="1081121" value="1"/>
  <variable name="X(24,16,1301)" index="1086192" value="1"/>
  <variable name="X(24,23,827)" index="1090315" value="1"/>
  <variable name="X(24,112,1207)" index="1095292" value="1"/>
  <variable name="X(25,44,30)" index="1098712" value="1"/>
  <variable name="X(25,76,4213)" index="1107492" value="1"/>
  <variable name="X(25,113,2365)" index="1110241" value="1"/>
  <variable name="X(26,23,2293)" index="1114766" value="1"/>
  <variable name="X(26,44,4213)" index="1121283" value="1"/>
  <variable name="X(26,114,3632)" index="1125299" value="1"/>
  <variable name="X(27,23,4213)" index="1130477" value="1"/>
  <variable name="X(27,48,2293)" index="1133154" value="1"/>
  <variable name="X(27,115,830)" index="1136288" value="1"/>
  <variable name="X(28,14,1296)" index="1141351" value="1"/>
  <variable name="X(28,48,4433)" index="1149085" value="1"/>
  <variable name="X(28,116,2293)" index="1151542" value="1"/>
  <variable name="X(29,1,4429)" index="1158275" value="1"/>
  <variable name="X(29,2,3475)" index="1161918" value="1"/>
  <variable name="X(29,117,4495)" index="1167535" value="1"/>
  <variable name="X(30,2,4495)" index="1172132" value="1"/>
  <variable name="X(30,31,3475)" index="1175709" value="1"/>
  <variable name="X(30,118,4123)" index="1180954" value="1"/>
  <variable name="X(31,30,4123)" index="1185551" value="1"/>
  <variable name="X(31,52,3475)" index="1189500" value="1"/>
  <variable name="X(31,119,3699)" index="1194321" value="1"/>
  <variable name="X(32,79,4059)" index="1199278" value="1"/>
  <variable name="X(32,80,4573)" index="1204389" value="1"/>
  <variable name="X(32,120,3504)" index="1207917" value="1"/>
  <variable name="X(33,52,3699)" index="1212709" value="1"/>
  <variable name="X(33,79,4573)" index="1218180" value="1"/>
  <variable name="X(33,88,3475)" index="1221679" value="1"/>
  <variable name="X(33,121,4059)" index="1226860" value="1"/>
  <variable name="X(34,36,3475)" index="1230873" value="1"/>
  <variable name="X(34,88,3699)" index="1235694" value="1"/>
  <variable name="X(34,122,3640)" index="1240232" value="1"/>
  <variable name="X(35,36,3640)" index="1244829" value="1"/>
  <variable name="X(35,87,3475)" index="1249261" value="1"/>
  <variable name="X(35,123,4318)" index="1254701" value="1"/>
  <variable name="X(36,34,3640)" index="1258620" value="1"/>
  <variable name="X(36,35,3475)" index="1263052" value="1"/>
  <variable name="X(36,124,1831)" index="1266005" value="1"/>
  <variable name="X(37,43,4213)" index="1272984" value="1"/>
  <variable name="X(37,76,30)" index="1273398" value="1"/>
  <variable name="X(37,125,2302)" index="1280267" value="1"/>
  <variable name="X(38,1,3475)" index="1286037" value="1"/>
  <variable name="X(38,10,4429)" index="1291588" value="1"/>
  <variable name="X(38,126,469)" index="1292225" value="1"/>
  <variable name="X(39,40,1980)" index="1298333" value="1"/>
  <variable name="X(39,46,4328)" index="1305278" value="1"/>
  <variable name="X(39,127,30)" index="1305577" value="1"/>
  <variable name="X(40,39,4328)" index="1314472" value="1"/>
  <variable name="X(40,71,1980)" index="1316721" value="1"/>
  <variable name="X(40,128,2577)" index="1321915" value="1"/>
  <variable name="X(41,72,2577)" index="1326512" value="1"/>
  <variable name="X(41,73,3640)" index="1332172" value="1"/>
  <variable name="X(41,129,2715)" index="1335844" value="1"/>
  <variable name="X(42,47,4432)" index="1342158" value="1"/>
  <variable name="X(42,73,4089)" index="1346412" value="1"/>
  <variable name="X(42,82,3640)" index="1350560" value="1"/>
  <variable name="X(42,130,1296)" index="1352813" value="1"/>
  <variable name="X(43,20,3471)" index="1359585" value="1"/>
  <variable name="X(43,37,2302)" index="1363013" value="1"/>
  <variable name="X(43,70,4573)" index="1369881" value="1"/>
  <variable name="X(43,75,4213)" index="1374118" value="1"/>
  <variable name="X(43,131,3324)" index="1377826" value="1"/>
  <variable name="X(44,25,4213)" index="1383312" value="1"/>
  <variable name="X(44,26,3632)" index="1387328" value="1"/>
  <variable name="X(44,45,30)" index="1388323" value="1"/>
  <variable name="X(44,132,2454)" index="1395344" value="1"/>
  <variable name="X(45,44,2454)" index="1399941" value="1"/>
  <variable name="X(45,77,30)" index="1402114" value="1"/>
  <variable name="X(45,133,4328)" index="1411009" value="1"/>
  <variable name="X(46,39,30)" index="1411308" value="1"/>
  <variable name="X(46,78,4328)" index="1420203" value="1"/>
  <variable name="X(47,42,1296)" index="1421768" value="1"/>
  <variable name="X(47,74,4432)" index="1429501" value="1"/>
  <variable name="X(47,135,2236)" index="1431902" value="1"/>
  <variable name="X(48,16,4433)" index="1438696" value="1"/>
  <variable name="X(48,27,830)" index="1439690" value="1"/>
  <variable name="X(48,28,2293)" index="1445750" value="1"/>
  <variable name="X(48,136,1301)" index="1449355" value="1"/>
  <variable name="X(49,15,2177)" index="1454828" value="1"/>
  <variable name="X(49,50,3471)" index="1460719" value="1"/>
  <variable name="X(49,137,1231)" index="1463076" value="1"/>
  <variable name="X(50,49,2177)" index="1468619" value="1"/>
  <variable name="X(50,57,3471)" index="1474510" value="1"/>
  <variable name="X(51,54,4573)" index="1480209" value="1"/>
  <variable name="X(51,69,3471)" index="1483704" value="1"/>
  <variable name="X(51,139,2313)" index="1487143" value="1"/>
  <variable name="X(52,31,3699)" index="1493126" value="1"/>
  <variable name="X(52,33,3475)" index="1497499" value="1"/>
  <variable name="X(53,54,3471)" index="1502092" value="1"/>
  <variable name="X(53,56,3842)" index="1507060" value="1"/>
  <variable name="X(53,141,4572)" index="1512387" value="1"/>
  <variable name="X(54,51,3471)" index="1515883" value="1"/>
  <variable name="X(54,53,4572)" index="1521581" value="1"/>
  <variable name="X(54,142,4573)" index="1526179" value="1"/>
  <variable name="X(55,56,3471)" index="1529674" value="1"/>
  <variable name="X(55,58,4487)" index="1535287" value="1"/>
  <variable name="X(55,143,3842)" index="1539239" value="1"/>
  <variable name="X(56,53,3471)" index="1543465" value="1"/>
  <variable name="X(56,55,3842)" index="1548433" value="1"/>
  <variable name="X(56,144,2837)" index="1552025" value="1"/>
  <variable name="X(57,18,3471)" index="1557256" value="1"/>
  <variable name="X(57,50,2177)" index="1560559" value="1"/>
  <variable name="X(58,18,4487)" index="1567466" value="1"/>
  <variable name="X(58,55,3471)" index="1571047" value="1"/>
  <variable name="X(58,146,2318)" index="1574491" value="1"/>
  <variable name="X(59,11,3475)" index="1580245" value="1"/>
  <variable name="X(59,62,4169)" index="1585536" value="1"/>
  <variable name="X(60,83,1722)" index="1587686" value="1"/>
  <variable name="X(60,84,3640)" index="1594201" value="1"/>
  <variable name="X(60,148,4401)" index="1599559" value="1"/>
  <variable name="X(61,13,3475)" index="1603230" value="1"/>
  <variable name="X(61,17,626)" index="1604978" value="1"/>
  <variable name="X(61,149,4402)" index="1613351" value="1"/>
  <variable name="X(62,13,4169)" index="1617715" value="1"/>
  <variable name="X(62,59,3475)" index="1621618" value="1"/>
  <variable name="X(62,150,3086)" index="1625826" value="1"/>
  <variable name="X(63,64,3475)" index="1630812" value="1"/>
  <variable name="X(63,66,3333)" index="1635267" value="1"/>
  <variable name="X(63,151,921)" index="1637452" value="1"/>
  <variable name="X(64,17,3475)" index="1644603" value="1"/>
  <variable name="X(64,63,921)" index="1646646" value="1"/>
  <variable name="X(64,152,3192)" index="1653514" value="1"/>
  <variable name="X(65,66,3475)" index="1658394" value="1"/>
  <variable name="X(65,68,551)" index="1660067" value="1"/>
  <variable name="X(65,153,2177)" index="1666290" value="1"/>
  <variable name="X(66,63,3475)" index="1672185" value="1"/>
  <variable name="X(66,65,551)" index="1673858" value="1"/>
  <variable name="X(66,154,3333)" index="1681237" value="1"/>
  <variable name="X(67,15,551)" index="1683052" value="1"/>
  <variable name="X(67,68,2177)" index="1689275" value="1"/>
  <variable name="X(68,65,2177)" index="1693872" value="1"/>
  <variable name="X(68,67,551)" index="1696843" value="1"/>
  <variable name="X(68,156,4146)" index="1705035" value="1"/>
  <variable name="X(69,51,4573)" index="1710059" value="1"/>
  <variable name="X(69,70,3471)" index="1713554" value="1"/>
  <variable name="X(69,157,3599)" index="1718279" value="1"/>
  <variable name="X(70,43,3471)" index="1722748" value="1"/>
  <variable name="X(70,69,4573)" index="1728447" value="1"/>
  <variable name="X(70,158,2328)" index="1730799" value="1"/>
  <variable name="X(71,40,2577)" index="1735645" value="1"/>
  <variable name="X(71,72,2330)" index="1739995" value="1"/>
  <variable name="X(71,159,1980)" index="1744242" value="1"/>
  <variable name="X(72,41,2715)" index="1749574" value="1"/>
  <variable name="X(72,71,2577)" index="1754033" value="1"/>
  <variable name="X(72,160,2330)" index="1758383" value="1"/>
  <variable name="X(73,41,2577)" index="1763227" value="1"/>
  <variable name="X(73,42,3640)" index="1768887" value="1"/>
  <variable name="X(73,161,4089)" index="1773933" value="1"/>
  <variable name="X(74,14,4432)" index="1778873" value="1"/>
  <variable name="X(74,47,1296)" index="1780334" value="1"/>
  <variable name="X(74,162,2599)" index="1786234" value="1"/>
  <variable name="X(75,3,2269)" index="1790501" value="1"/>
  <variable name="X(75,43,3324)" index="1796153" value="1"/>
  <variable name="X(75,163,4213)" index="1801639" value="1"/>
  <variable name="X(76,25,30)" index="1802053" value="1"/>
  <variable name="X(76,37,4213)" index="1810833" value="1"/>
  <variable name="X(76,164,1388)" index="1812605" value="1"/>
  <variable name="X(77,45,4328)" index="1820142" value="1"/>
  <variable name="X(77,78,30)" index="1820441" value="1"/>
  <variable name="X(78,46,30)" index="1825038" value="1"/>
  <variable name="X(78,77,4328)" index="1833933" value="1"/>
  <variable name="X(79,32,4573)" index="1838775" value="1"/>
  <variable name="X(79,33,4059)" index="1842858" value="1"/>
  <variable name="X(79,167,1720)" index="1845116" value="1"/>
  <variable name="X(80,21,4573)" index="1852566" value="1"/>
  <variable name="X(80,32,3504)" index="1856094" value="1"/>
  <variable name="X(80,168,3471)" index="1860658" value="1"/>
  <variable name="X(81,82,1722)" index="1863506" value="1"/>
  <variable name="X(81,83,3640)" index="1870021" value="1"/>
  <variable name="X(82,42,4432)" index="1875410" value="1"/>
  <variable name="X(82,81,3640)" index="1879215" value="1"/>
  <variable name="X(82,170,1722)" index="1881894" value="1"/>
  <variable name="X(83,60,3640)" index="1888409" value="1"/>
  <variable name="X(83,81,1722)" index="1891088" value="1"/>
  <variable name="X(83,171,2261)" index="1896224" value="1"/>
  <variable name="X(84,60,4401)" index="1902961" value="1"/>
  <variable name="X(84,85,3640)" index="1906797" value="1"/>
  <variable name="X(84,172,4095)" index="1911849" value="1"/>
  <variable name="X(85,84,4095)" index="1916446" value="1"/>
  <variable name="X(85,86,3640)" index="1920588" value="1"/>
  <variable name="X(85,173,4096)" index="1925641" value="1"/>
  <variable name="X(86,85,4096)" index="1930238" value="1"/>
  <variable name="X(86,87,3640)" index="1934379" value="1"/>
  <variable name="X(86,174,3475)" index="1938811" value="1"/>
  <variable name="X(87,35,3640)" index="1943573" value="1"/>
  <variable name="X(87,86,3475)" index="1948005" value="1"/>
  <variable name="X(87,175,1867)" index="1950994" value="1"/>
  <variable name="X(88,33,3699)" index="1957423" value="1"/>
  <variable name="X(88,34,3475)" index="1961796" value="1"/>
  <variable name="X(88,176,1802)" index="1964720" value="1"/>
 </variables>
</CPLEXSolution>
